p edge 125 1625 106
e 44 111
e 44 120
e 44 110
e 44 38
e 44 100
e 44 22
e 44 25
e 44 57
e 44 47
e 44 112
e 44 69
e 44 59
e 44 71
e 44 48
e 44 20
e 44 113
e 44 4
e 44 83
e 44 18
e 44 40
e 44 118
e 44 117
e 44 15
e 44 26
e 44 51
e 44 121
e 111 88
e 111 75
e 111 108
e 111 59
e 111 121
e 111 106
e 111 8
e 111 123
e 111 102
e 111 55
e 111 56
e 111 100
e 111 68
e 111 19
e 111 114
e 111 17
e 111 32
e 111 34
e 111 18
e 111 31
e 111 97
e 111 15
e 111 120
e 111 29
e 111 62
e 37 72
e 37 39
e 37 84
e 37 15
e 37 97
e 37 29
e 37 32
e 37 109
e 37 30
e 37 33
e 37 108
e 37 75
e 37 24
e 37 27
e 37 77
e 37 67
e 37 22
e 37 25
e 37 114
e 37 58
e 37 48
e 37 23
e 37 47
e 37 125
e 37 35
e 37 82
e 72 67
e 72 118
e 72 51
e 72 78
e 72 120
e 72 31
e 72 123
e 72 26
e 72 10
e 72 13
e 72 99
e 72 14
e 72 101
e 72 81
e 72 57
e 72 8
e 72 38
e 72 125
e 72 92
e 72 9
e 72 59
e 72 73
e 72 109
e 72 76
e 72 56
e 2 114
e 2 58
e 2 35
e 2 103
e 2 27
e 2 115
e 2 52
e 2 94
e 2 84
e 2 61
e 2 97
e 2 18
e 2 63
e 2 43
e 2 121
e 2 75
e 2 65
e 2 42
e 2 77
e 2 54
e 2 90
e 2 89
e 2 79
e 2 92
e 2 124
e 2 101
e 114 81
e 114 32
e 114 43
e 114 115
e 114 95
e 114 82
e 114 33
e 114 112
e 114 47
e 114 113
e 114 24
e 114 57
e 114 11
e 114 90
e 114 25
e 114 88
e 114 61
e 114 91
e 114 120
e 114 122
e 114 34
e 114 103
e 114 15
e 41 42
e 41 78
e 41 55
e 41 20
e 41 100
e 41 54
e 41 122
e 41 89
e 41 56
e 41 69
e 41 124
e 41 48
e 41 113
e 41 32
e 41 16
e 41 30
e 41 125
e 41 105
e 41 49
e 41 62
e 41 117
e 41 5
e 41 9
e 41 109
e 41 108
e 41 75
e 42 40
e 42 88
e 42 65
e 42 120
e 42 3
e 42 6
e 42 112
e 42 69
e 42 59
e 42 7
e 42 91
e 42 35
e 42 116
e 42 125
e 42 82
e 42 95
e 42 49
e 42 30
e 42 94
e 42 106
e 42 24
e 42 8
e 42 76
e 42 11
e 47 122
e 47 112
e 47 89
e 47 79
e 47 12
e 47 91
e 47 103
e 47 116
e 47 83
e 47 60
e 47 82
e 47 24
e 47 85
e 47 52
e 47 108
e 47 121
e 47 36
e 47 17
e 47 1
e 47 110
e 47 123
e 47 33
e 47 35
e 122 99
e 122 80
e 122 11
e 122 90
e 122 25
e 122 28
e 122 58
e 122 88
e 122 102
e 122 34
e 122 64
e 122 86
e 122 103
e 122 54
e 122 117
e 122 85
e 122 31
e 122 118
e 122 15
e 122 48
e 122 52
e 122 82
e 122 93
e 7 49
e 7 61
e 7 74
e 7 21
e 7 96
e 7 63
e 7 53
e 7 10
e 7 98
e 7 88
e 7 65
e 7 22
e 7 12
e 7 77
e 7 24
e 7 99
e 7 46
e 7 59
e 7 25
e 7 5
e 7 93
e 7 70
e 7 50
e 7 82
e 7 95
e 49 18
e 49 31
e 49 116
e 49 83
e 49 45
e 49 60
e 49 73
e 49 118
e 49 85
e 49 117
e 49 107
e 49 84
e 49 54
e 49 76
e 49 11
e 49 66
e 49 28
e 49 108
e 49 55
e 49 77
e 49 67
e 49 80
e 49 3
e 12 15
e 12 8
e 12 57
e 12 27
e 12 29
e 12 5
e 12 86
e 12 63
e 12 108
e 12 85
e 12 52
e 12 88
e 12 65
e 12 32
e 12 54
e 12 1
e 12 99
e 12 112
e 12 89
e 12 33
e 12 46
e 12 91
e 12 45
e 12 81
e 15 116
e 15 92
e 15 104
e 15 117
e 15 51
e 15 11
e 15 119
e 15 96
e 15 109
e 15 20
e 15 85
e 15 121
e 15 55
e 15 57
e 15 34
e 15 99
e 15 102
e 15 56
e 15 68
e 15 71
e 18 95
e 18 104
e 18 84
e 18 4
e 18 51
e 18 106
e 18 86
e 18 76
e 18 85
e 18 121
e 18 88
e 18 10
e 18 87
e 18 54
e 18 109
e 18 112
e 18 124
e 18 45
e 18 90
e 18 93
e 18 50
e 18 115
e 95 124
e 95 21
e 95 68
e 95 85
e 95 31
e 95 32
e 95 43
e 95 65
e 95 30
e 95 60
e 95 82
e 95 97
e 95 80
e 95 119
e 95 38
e 95 55
e 95 28
e 95 98
e 95 123
e 95 100
e 95 64
e 95 56
e 78 109
e 78 77
e 78 58
e 78 90
e 78 69
e 78 22
e 78 112
e 78 92
e 78 39
e 78 21
e 78 51
e 78 68
e 78 91
e 78 94
e 78 19
e 78 116
e 78 1
e 78 63
e 78 66
e 78 117
e 78 45
e 78 27
e 78 119
e 78 10
e 109 106
e 109 36
e 109 38
e 109 113
e 109 23
e 109 86
e 109 100
e 109 125
e 109 84
e 109 115
e 109 45
e 109 16
e 109 63
e 109 97
e 109 26
e 109 27
e 109 123
e 109 71
e 109 28
e 109 107
e 81 43
e 81 116
e 81 63
e 81 83
e 81 80
e 81 118
e 81 5
e 81 8
e 81 119
e 81 19
e 81 121
e 81 88
e 81 23
e 81 120
e 81 34
e 81 64
e 81 110
e 81 100
e 81 40
e 81 125
e 81 102
e 81 31
e 81 124
e 34 39
e 34 94
e 34 61
e 34 74
e 34 116
e 34 106
e 34 119
e 34 73
e 34 9
e 34 121
e 34 75
e 34 88
e 34 54
e 34 90
e 34 112
e 34 36
e 34 58
e 34 26
e 34 32
e 34 70
e 34 33
e 39 85
e 39 121
e 39 88
e 39 21
e 39 100
e 39 77
e 39 67
e 39 69
e 39 68
e 39 70
e 39 60
e 39 50
e 39 8
e 39 11
e 39 92
e 39 104
e 39 117
e 39 94
e 39 107
e 39 61
e 39 51
e 39 3
e 39 86
e 26 35
e 26 48
e 26 103
e 26 80
e 26 57
e 26 60
e 26 102
e 26 115
e 26 104
e 26 71
e 26 98
e 26 64
e 26 21
e 26 77
e 26 54
e 26 67
e 26 89
e 26 19
e 26 3
e 26 101
e 26 91
e 26 68
e 35 62
e 35 30
e 35 117
e 35 14
e 35 84
e 35 61
e 35 53
e 35 43
e 35 11
e 35 25
e 35 88
e 35 9
e 35 87
e 35 19
e 35 89
e 35 46
e 35 124
e 35 48
e 35 70
e 35 31
e 35 83
e 45 48
e 45 104
e 45 107
e 45 84
e 45 97
e 45 64
e 45 23
e 45 119
e 45 98
e 45 3
e 45 17
e 45 120
e 45 1
e 45 90
e 45 67
e 45 57
e 45 33
e 45 102
e 45 79
e 45 91
e 45 24
e 48 32
e 48 16
e 48 80
e 48 125
e 48 115
e 48 85
e 48 24
e 48 117
e 48 107
e 48 84
e 48 8
e 48 97
e 48 64
e 48 96
e 48 110
e 48 67
e 48 112
e 48 102
e 48 31
e 11 55
e 11 102
e 11 79
e 11 9
e 11 59
e 11 91
e 11 68
e 11 25
e 11 6
e 11 93
e 11 27
e 11 92
e 11 82
e 11 16
e 11 64
e 11 10
e 11 53
e 11 30
e 11 98
e 55 98
e 55 75
e 55 65
e 55 110
e 55 67
e 55 69
e 55 53
e 55 101
e 55 21
e 55 51
e 55 54
e 55 113
e 55 115
e 55 105
e 55 46
e 55 84
e 55 52
e 55 74
e 55 33
e 55 106
e 43 124
e 43 91
e 43 90
e 43 80
e 43 3
e 43 70
e 43 105
e 43 107
e 43 96
e 43 86
e 43 63
e 43 53
e 43 88
e 43 14
e 43 110
e 43 64
e 43 54
e 43 67
e 43 27
e 43 99
e 43 25
e 124 16
e 124 30
e 124 33
e 124 112
e 124 14
e 124 93
e 124 96
e 124 110
e 124 113
e 124 24
e 124 38
e 124 9
e 124 61
e 124 94
e 124 105
e 124 53
e 124 40
e 124 21
e 124 51
e 84 125
e 84 20
e 84 118
e 84 53
e 84 21
e 84 73
e 84 68
e 84 119
e 84 96
e 84 98
e 84 46
e 84 76
e 84 52
e 84 82
e 84 33
e 84 123
e 84 28
e 125 96
e 125 68
e 125 99
e 125 16
e 125 63
e 125 14
e 125 93
e 125 108
e 125 27
e 125 38
e 125 74
e 125 116
e 125 73
e 125 54
e 125 101
e 125 64
e 125 65
e 125 51
e 23 29
e 23 94
e 23 97
e 23 74
e 23 51
e 23 31
e 23 99
e 23 76
e 23 8
e 23 75
e 23 32
e 23 87
e 23 77
e 23 67
e 23 89
e 23 17
e 23 101
e 23 21
e 23 93
e 23 70
e 23 82
e 23 16
e 29 50
e 29 82
e 29 107
e 29 16
e 29 64
e 29 31
e 29 14
e 29 119
e 29 40
e 29 30
e 29 24
e 29 5
e 29 25
e 29 100
e 29 54
e 29 99
e 29 102
e 29 56
e 29 3
e 29 6
e 29 17
e 29 20
e 98 88
e 98 104
e 98 92
e 98 6
e 98 50
e 98 4
e 98 70
e 98 31
e 98 32
e 98 65
e 98 79
e 98 60
e 98 66
e 98 96
e 98 123
e 98 100
e 98 97
e 98 24
e 98 38
e 21 105
e 21 5
e 21 94
e 21 61
e 21 74
e 21 28
e 21 9
e 21 3
e 21 22
e 21 1
e 21 123
e 21 112
e 21 58
e 21 38
e 21 83
e 21 60
e 21 115
e 105 100
e 105 73
e 105 87
e 105 120
e 105 62
e 105 30
e 105 60
e 105 112
e 105 82
e 105 99
e 105 57
e 105 8
e 105 116
e 105 58
e 105 115
e 105 117
e 105 17
e 105 4
e 105 83
e 105 64
e 105 119
e 67 24
e 67 8
e 67 107
e 67 25
e 67 9
e 67 96
e 67 76
e 67 118
e 67 19
e 67 20
e 67 110
e 67 123
e 67 91
e 67 68
e 67 13
e 67 52
e 107 108
e 107 20
e 107 1
e 107 53
e 107 86
e 107 103
e 107 104
e 107 16
e 107 60
e 107 52
e 107 33
e 107 116
e 107 115
e 107 77
e 107 120
e 107 91
e 107 119
e 107 106
e 108 61
e 108 75
e 108 89
e 108 3
e 108 17
e 108 53
e 108 56
e 108 40
e 108 70
e 108 112
e 108 65
e 108 16
e 108 76
e 108 79
e 108 14
e 108 96
e 108 24
e 108 90
e 32 22
e 32 116
e 32 60
e 32 115
e 32 1
e 32 4
e 32 97
e 32 74
e 32 106
e 32 120
e 32 110
e 32 79
e 32 56
e 32 69
e 32 46
e 32 36
e 33 79
e 33 92
e 33 36
e 33 101
e 33 5
e 33 83
e 33 19
e 33 31
e 33 97
e 33 64
e 33 20
e 33 106
e 33 16
e 33 53
e 33 121
e 33 123
e 79 66
e 79 101
e 79 91
e 79 38
e 79 9
e 79 61
e 79 75
e 79 94
e 79 20
e 79 40
e 79 70
e 79 120
e 79 110
e 79 87
e 79 100
e 79 112
e 79 60
e 79 52
e 52 92
e 52 82
e 52 40
e 52 104
e 52 94
e 52 19
e 52 1
e 52 115
e 52 87
e 52 27
e 52 86
e 52 99
e 52 66
e 52 13
e 52 101
e 52 6
e 52 102
e 92 90
e 92 16
e 92 123
e 92 46
e 92 77
e 92 60
e 92 61
e 92 59
e 92 104
e 92 116
e 92 54
e 92 68
e 92 19
e 92 118
e 92 6
e 92 1
e 92 120
e 100 71
e 100 22
e 100 61
e 100 119
e 100 19
e 100 6
e 100 56
e 100 86
e 100 40
e 100 102
e 100 65
e 100 46
e 100 30
e 100 66
e 100 96
e 6 61
e 6 4
e 6 51
e 6 73
e 6 20
e 6 87
e 6 123
e 6 77
e 6 54
e 6 14
e 6 102
e 6 59
e 6 36
e 6 13
e 6 101
e 6 5
e 6 80
e 6 27
e 6 16
e 61 17
e 61 68
e 61 120
e 61 123
e 61 77
e 61 80
e 61 10
e 61 13
e 61 91
e 61 71
e 61 115
e 61 24
e 61 58
e 69 117
e 69 106
e 69 99
e 69 27
e 69 8
e 69 22
e 69 25
e 69 120
e 69 59
e 69 36
e 69 50
e 69 1
e 69 101
e 69 71
e 69 54
e 69 70
e 69 82
e 69 85
e 69 65
e 117 50
e 117 51
e 117 85
e 117 119
e 117 62
e 117 16
e 117 76
e 117 66
e 117 8
e 117 71
e 117 28
e 117 58
e 117 91
e 117 94
e 117 19
e 19 116
e 19 119
e 19 30
e 19 118
e 19 120
e 19 110
e 19 57
e 19 112
e 19 102
e 19 46
e 19 101
e 19 58
e 19 10
e 19 93
e 19 50
e 116 85
e 116 64
e 116 16
e 116 112
e 116 93
e 116 99
e 116 113
e 116 120
e 116 90
e 116 74
e 116 88
e 116 106
e 116 24
e 3 28
e 3 86
e 3 76
e 3 20
e 3 121
e 3 22
e 3 46
e 3 36
e 3 13
e 3 101
e 3 68
e 3 123
e 3 14
e 3 4
e 3 115
e 3 104
e 3 74
e 28 121
e 28 65
e 28 17
e 28 20
e 28 87
e 28 77
e 28 90
e 28 89
e 28 102
e 28 10
e 28 113
e 28 103
e 28 40
e 28 62
e 28 97
e 28 25
e 28 64
e 28 96
e 75 9
e 75 73
e 75 90
e 75 1
e 75 64
e 75 56
e 75 70
e 75 101
e 75 103
e 75 93
e 75 62
e 75 30
e 75 14
e 75 94
e 75 57
e 75 38
e 75 96
e 121 59
e 121 40
e 121 119
e 121 104
e 121 85
e 121 31
e 121 62
e 121 112
e 121 110
e 121 27
e 121 8
e 121 38
e 121 10
e 121 25
e 54 115
e 54 24
e 54 119
e 54 86
e 54 20
e 54 4
e 54 57
e 54 112
e 54 56
e 54 46
e 54 83
e 115 10
e 115 62
e 115 30
e 115 60
e 115 94
e 115 110
e 115 38
e 115 119
e 115 123
e 115 1
e 115 64
e 112 80
e 112 74
e 112 50
e 112 119
e 112 85
e 112 10
e 112 46
e 112 14
e 99 38
e 99 9
e 99 103
e 99 73
e 99 85
e 99 118
e 99 36
e 99 17
e 99 50
e 99 1
e 99 65
e 99 60
e 99 63
e 50 1
e 50 53
e 50 85
e 50 65
e 50 90
e 50 8
e 50 22
e 50 89
e 50 102
e 50 9
e 50 113
e 50 103
e 50 93
e 50 70
e 50 20
e 50 40
e 16 38
e 16 93
e 16 60
e 16 62
e 16 86
e 16 63
e 16 5
e 16 20
e 16 123
e 16 66
e 16 56
e 8 120
e 8 97
e 8 64
e 8 89
e 8 56
e 8 103
e 8 74
e 8 73
e 8 63
e 8 53
e 8 88
e 8 65
e 120 102
e 120 74
e 120 103
e 120 59
e 120 83
e 120 51
e 120 10
e 120 76
e 120 96
e 20 94
e 20 88
e 20 77
e 20 66
e 20 56
e 20 91
e 20 71
e 20 25
e 20 103
e 20 93
e 20 9
e 94 4
e 94 86
e 94 66
e 94 123
e 94 31
e 94 102
e 94 77
e 94 5
e 94 118
e 94 9
e 94 97
e 94 59
e 4 104
e 4 51
e 4 31
e 4 73
e 4 63
e 4 76
e 4 118
e 4 10
e 4 65
e 4 9
e 4 89
e 4 66
e 4 101
e 4 58
e 4 27
e 4 17
e 4 62
e 13 91
e 13 68
e 13 58
e 13 25
e 13 38
e 13 123
e 13 113
e 13 90
e 13 103
e 13 83
e 13 27
e 13 17
e 13 73
e 13 118
e 13 87
e 13 57
e 13 89
e 13 46
e 13 10
e 13 36
e 91 76
e 91 14
e 91 66
e 91 110
e 91 38
e 91 104
e 91 17
e 91 1
e 91 86
e 91 96
e 14 56
e 14 25
e 14 5
e 14 71
e 14 51
e 14 31
e 14 106
e 14 119
e 14 96
e 14 86
e 14 97
e 14 87
e 14 77
e 14 24
e 56 74
e 56 24
e 56 96
e 56 9
e 56 68
e 56 90
e 56 57
e 56 40
e 56 46
e 56 118
e 56 30
e 73 118
e 73 36
e 73 119
e 73 68
e 73 88
e 73 123
e 73 77
e 73 63
e 73 89
e 73 82
e 73 104
e 73 57
e 73 70
e 73 83
e 82 10
e 82 106
e 82 76
e 82 118
e 82 63
e 82 96
e 82 59
e 82 110
e 82 36
e 82 17
e 82 89
e 85 40
e 85 65
e 85 66
e 85 80
e 85 27
e 85 10
e 85 30
e 85 59
e 85 101
e 85 22
e 17 86
e 17 53
e 17 30
e 17 88
e 17 65
e 17 24
e 17 46
e 17 9
e 17 57
e 17 93
e 17 70
e 17 62
e 96 53
e 96 103
e 96 118
e 96 76
e 96 80
e 96 5
e 96 123
e 96 113
e 51 62
e 51 104
e 51 40
e 51 74
e 51 53
e 51 46
e 51 89
e 51 5
e 51 68
e 51 113
e 51 80
e 89 57
e 89 38
e 89 22
e 89 104
e 89 1
e 89 64
e 89 70
e 89 46
e 89 60
e 89 106
e 59 63
e 59 66
e 59 90
e 59 24
e 59 38
e 59 113
e 59 22
e 59 103
e 59 70
e 59 83
e 59 97
e 59 106
e 63 101
e 63 103
e 63 83
e 63 74
e 63 46
e 63 30
e 63 60
e 63 76
e 63 66
e 63 5
e 63 57
e 30 36
e 30 101
e 30 58
e 30 71
e 30 97
e 30 74
e 30 53
e 30 88
e 30 25
e 36 64
e 36 119
e 36 86
e 36 40
e 36 27
e 36 22
e 36 87
e 36 57
e 36 101
e 36 1
e 36 71
e 36 60
e 36 62
e 22 110
e 22 87
e 22 66
e 22 58
e 22 113
e 22 80
e 22 93
e 22 60
e 22 104
e 22 31
e 22 86
e 22 88
e 97 87
e 97 68
e 97 65
e 97 76
e 97 10
e 97 74
e 97 77
e 97 58
e 97 110
e 80 31
e 80 102
e 80 10
e 80 62
e 80 76
e 80 103
e 80 83
e 80 24
e 80 58
e 80 86
e 80 1
e 80 65
e 118 87
e 118 101
e 118 64
e 118 68
e 118 58
e 118 5
e 118 57
e 118 38
e 118 88
e 31 93
e 31 70
e 31 83
e 31 74
e 31 110
e 31 123
e 31 77
e 31 71
e 62 104
e 62 113
e 62 10
e 62 64
e 62 86
e 62 24
e 62 5
e 62 38
e 62 65
e 62 9
e 62 66
e 104 64
e 104 46
e 104 93
e 104 27
e 104 74
e 104 53
e 104 83
e 104 103
e 65 71
e 65 40
e 65 74
e 65 66
e 65 90
e 40 87
e 40 77
e 40 113
e 40 46
e 40 58
e 40 71
e 40 70
e 40 83
e 40 60
e 68 60
e 68 5
e 68 119
e 68 58
e 68 77
e 68 71
e 68 93
e 88 58
e 88 110
e 88 83
e 88 60
e 88 106
e 58 87
e 58 90
e 58 5
e 58 71
e 58 103
e 58 106
e 66 38
e 66 25
e 66 70
e 66 74
e 66 119
e 66 86
e 66 76
e 66 110
e 27 87
e 27 90
e 27 46
e 27 71
e 27 70
e 27 25
e 27 74
e 27 119
e 27 86
e 87 71
e 87 86
e 87 53
e 87 83
e 87 90
e 87 46
e 87 76
e 87 77
e 87 106
e 9 77
e 9 102
e 9 46
e 9 123
e 9 113
e 9 70
e 9 76
e 9 53
e 1 71
e 1 5
e 1 24
e 1 123
e 1 103
e 1 57
e 1 70
e 1 102
e 71 110
e 71 90
e 71 101
e 71 93
e 71 5
e 71 70
e 119 53
e 119 10
e 119 57
e 93 101
e 93 76
e 93 103
e 93 74
e 93 106
e 93 53
e 93 83
e 24 90
e 24 38
e 24 5
e 24 74
e 90 77
e 90 102
e 90 60
e 64 77
e 64 102
e 64 101
e 64 113
e 57 77
e 57 38
e 57 101
e 57 113
e 57 60
e 70 101
e 70 53
e 70 106
e 10 25
e 10 123
e 10 103
e 10 60
e 10 86
e 10 5
e 25 5
e 25 101
e 25 103
e 25 106
e 25 76
e 25 53
e 83 60
e 83 74
e 83 113
e 83 103
e 83 53
e 76 113
e 76 106
e 76 38
e 53 106
e 53 123
e 46 38
e 46 110
e 46 102
e 102 5
e 102 103
e 102 106
e 123 110
e 110 113
e 110 106
e 110 86
e 5 113
e 5 74
e 86 113
e 106 113
e 38 113
